; benchmark generated from python API
(set-info :status unknown)
(declare-fun x5 () Real)
(declare-fun x3 () Real)
(declare-fun bool.b14 () Bool)
(declare-fun bool.b5 () Bool)
(declare-fun bool.b10 () Bool)
(declare-fun bool.b8 () Bool)
(declare-fun bool.b12 () Bool)
(declare-fun bool.b23 () Bool)
(declare-fun x4 () Real)
(declare-fun bool.b6 () Bool)
(declare-fun bool.b7 () Bool)
(declare-fun bool.b22 () Bool)
(assert
 (forall ((?lambda Real) )(let ((?x13909 (+ x3 (* (- 1.0) ?lambda))))
 (let ((?x8223 (* 1.0 ?x13909)))
 (let (($x559 (<= (+ ?x8223 (* 1.0 (+ x5 (* 1.0 ?lambda)))) 10.0)))
 (let (($x11282 (and (and (not bool.b8) (not bool.b10)) (and (not bool.b5) (not bool.b14)))))
 (let (($x14621 (not bool.b12)))
 (let (($x16704 (and $x14621 $x11282)))
 (let (($x36129 (not (and (not bool.b5) bool.b23))))
 (let (($x7742 (not (and $x36129 (not $x16704)))))
 (let ((?x204 (- 10.0)))
 (let ((?x65 (+ x5 (* 1.0 ?lambda))))
 (let ((?x26295 (- 1.0)))
 (let ((?x26749 (* ?x26295 ?x65)))
 (let (($x8353 (<= ?x26749 ?x204)))
 (let (($x1035 (and $x8353 (and (not (<= (* 1.0 (+ x4 (* 20.0 ?lambda))) 4820.0)) $x7742))))
 (let (($x1361 (<= ?x8223 0.0)))
 (let (($x23329 (and (<= (+ ?x8223 (* (/ 3.0 20.0) (+ x4 (* 20.0 ?lambda)))) 1200.0) (and $x8353 (and (<= ?x8223 20.0) (and (not bool.b23) $x16704))))))
 (let (($x1927 (not (<= (+ ?x8223 (* (/ 3.0 20.0) (+ x4 (* 20.0 ?lambda)))) 723.0))))
 (let (($x26037 (and (not (and (not $x1361) (not (and $x1927 $x23329)))) (not (and $x1361 (not $x1035))))))
 (let (($x28660 (not $x26037)))
 (let (($x2212 (and (<= (+ (* ?x26295 ?x13909) ?x26749) ?x204) (and (not (and (not $x559) $x28660)) (not (and (not $x7742) $x559))))))
 (let ((?x13985 (* 20.0 ?lambda)))
 (let ((?x32330 (+ x4 ?x13985)))
 (let ((?x33926 (* 1.0 ?x32330)))
 (let ((?x11309 (+ ?x33926 (* (- 20.0) ?x65))))
 (let (($x26600 (<= ?x11309 4620.0)))
 (let (($x325 (and (<= ?x11309 7800.0) (and (not (and $x26600 $x28660)) (not (and (not $x26600) (not $x2212)))))))
 (let (($x11936 (not (and (not bool.b7) (not (and bool.b5 (not bool.b6)))))))
 (let (($x6680 (not bool.b22)))
 (let (($x2121 (and $x6680 (and $x11936 (not (and bool.b7 (not (and bool.b6 $x325))))))))
 (let (($x13753 (exists ((?lambdaprime Real) )(! (let (($x6680 (not bool.b22)))
 (let (($x4065 (not (<= (* 1.0 (+ x3 (* (- 1.0) ?lambdaprime))) 33.0))))
 (let (($x1343 (and $x4065 (not (<= (* (- 1.0) (+ x4 (* 20.0 ?lambdaprime))) (- 4910.0))))))
 (let (($x16742 (and (not $x1343) (and $x6680 (and (not bool.b7) (and (not bool.b5) bool.b6))))))
 (let (($x22700 (and $x4065 (not (<= (* (- 1.0) (+ x4 (* 20.0 ?lambdaprime))) (- 4500.0))))))
 (let (($x2051 (and (not $x22700) (and $x6680 (and bool.b7 (and (not bool.b5) (not bool.b6)))))))
 (let (($x7736 (and (not (<= (* (- 1.0) (+ x4 (* 20.0 ?lambdaprime))) (- 4100.0))) $x4065)))
 (let (($x15469 (and (not $x7736) (and $x6680 (and (not bool.b7) (and (not bool.b5) (not bool.b6)))))))
 (let (($x13570 (and (not (<= (* (- 1.0) (+ x5 (* 1.0 ?lambdaprime))) (- 10.0))) (and (and (not $x15469) (not $x2051)) (not $x16742)))))
 (and (and (<= 0.0 ?lambdaprime) (<= ?lambdaprime ?lambda)) (not $x13570))))))))))) :qid k!27))
 ))
 (or (or $x13753 (< ?lambda 0.0)) (not $x2121)))))))))))))))))))))))))))))))))
 )
(check-sat)
